48342702377778101555015,7,1,2,010,8,1,2,07,15,1,2,011,8,1,2,014,7,1,2,03,3,1,2,011,5,1,2,04,14,1,2,04,6,1,2,05,10,1,2,07,3,1,2,08,12,1,2,010,1,1,2,015,4,1,2,011,2,1,2,010,6,1,2,015,6,1,2,012,9,1,2,011,4,1,2,012,5,1,2,08,1,1,2,011,5,1,2,012,4,1,2,01,6,1,2,01,6,1,2,03,8,1,2,01,14,1,2,06,14,1,2,03,4,1,2,014,13,1,2,013,13,1,2,07,11,1,2,013,1,1,2,012,2,1,2,02,10,1,2,06,10,1,2,012,12,1,2,08,3,1,2,012,15,1,2,02,13,1,2,03,8,1,2,014,6,1,2,01,9,1,2,01,11,1,2,06,14,1,2,08,15,1,2,08,7,1,2,010,2,1,2,03,14,1,2,012,11,1,2,0